# Created by Octave 5.1.0, Sat Nov 23 17:04:35 2019 GMT <unknown@Alienovo>
# name: positive_files
# type: scalar struct
# ndims: 2
 1 1
# length: 1714
# name: disconnect
# type: scalar
3


# name: clouded
# type: scalar
1


# name: coincident
# type: scalar
2


# name: critically
# type: scalar
1


# name: collocation
# type: scalar
3


# name: assessed
# type: scalar
2


# name: conduct
# type: scalar
1


# name: govern
# type: scalar
1


# name: attention
# type: scalar
2


# name: affirmed
# type: scalar
2


# name: bilaterally
# type: scalar
2


# name: ceded
# type: scalar
1


# name: fashioned
# type: scalar
1


# name: contraband
# type: scalar
1


# name: address
# type: scalar
1


# name: accessibility
# type: scalar
4


# name: afraid
# type: scalar
2


# name: explored
# type: scalar
2


# name: affirm
# type: scalar
2


# name: aircraft
# type: scalar
1


# name: arranging
# type: scalar
2


# name: approval
# type: scalar
2


# name: echo
# type: scalar
1


# name: infamous
# type: scalar
1


# name: disband
# type: scalar
2


# name: gyro
# type: scalar
1


# name: disapproval
# type: scalar
3


# name: credit
# type: scalar
1


# name: counterattack
# type: scalar
1


# name: inconstancy
# type: scalar
2


# name: copartner
# type: scalar
1


# name: frequency
# type: scalar
1


# name: history
# type: scalar
1


# name: disappear
# type: scalar
3


# name: dated
# type: scalar
1


# name: elegant
# type: scalar
1


# name: frequent
# type: scalar
1


# name: favour
# type: scalar
1


# name: entry
# type: scalar
1


# name: exist
# type: scalar
2


# name: agreement
# type: scalar
2


# name: belief
# type: scalar
2


# name: disinterested
# type: scalar
2


# name: counteract
# type: scalar
1


# name: ability
# type: scalar
2


# name: humanity
# type: scalar
2


# name: affected
# type: scalar
2


# name: civility
# type: scalar
2


# name: existing
# type: scalar
2


# name: habitation
# type: scalar
3


# name: honour
# type: scalar
1


# name: excited
# type: scalar
2


# name: counteroffer
# type: scalar
1


# name: disposed
# type: scalar
2


# name: furbish
# type: scalar
1


# name: competent
# type: scalar
1


# name: incident
# type: scalar
1


# name: collateral
# type: scalar
2


# name: affection
# type: scalar
2


# name: coefficient
# type: scalar
3


# name: destined
# type: scalar
1


# name: formation
# type: scalar
2


# name: credulity
# type: scalar
2


# name: flexibly
# type: scalar
1


# name: habit
# type: scalar
1


# name: immortal
# type: scalar
2


# name: disown
# type: scalar
2


# name: ambitious
# type: scalar
2


# name: disunion
# type: scalar
2


# name: attack
# type: scalar
2


# name: action
# type: scalar
1


# name: ethical
# type: scalar
1


# name: abundant
# type: scalar
2


# name: adjust
# type: scalar
2


# name: confident
# type: scalar
1


# name: decency
# type: scalar
1


# name: greedy
# type: scalar
1


# name: expected
# type: scalar
2


# name: cooked
# type: scalar
1


# name: frequently
# type: scalar
1


# name: hero
# type: scalar
1


# name: characteristic
# type: scalar
4


# name: appreciated
# type: scalar
2


# name: firing
# type: scalar
1


# name: counterpart
# type: scalar
1


# name: critical
# type: scalar
1


# name: heroes
# type: scalar
1


# name: diffusion
# type: scalar
2


# name: construct
# type: scalar
2


# name: antibody
# type: scalar
1


# name: grateful
# type: scalar
1


# name: engaging
# type: scalar
2


# name: decently
# type: scalar
1


# name: disowned
# type: scalar
2


# name: convincing
# type: scalar
2


# name: consequent
# type: scalar
1


# name: antithesis
# type: scalar
2


# name: distinctly
# type: scalar
2


# name: autograph
# type: scalar
1


# name: distrustful
# type: scalar
2


# name: digestion
# type: scalar
2


# name: disbelief
# type: scalar
3


# name: different
# type: scalar
1


# name: appear
# type: scalar
2


# name: departmental
# type: scalar
3


# name: admit
# type: scalar
2


# name: constancy
# type: scalar
1


# name: indecent
# type: scalar
2


# name: advantageous
# type: scalar
3


# name: fertility
# type: scalar
2


# name: founded
# type: scalar
1


# name: correctly
# type: scalar
2


# name: comprehension
# type: scalar
3


# name: arrangement
# type: scalar
2


# name: consistency
# type: scalar
2


# name: faction
# type: scalar
1


# name: disgraceful
# type: scalar
2


# name: claiming
# type: scalar
1


# name: assesses
# type: scalar
2


# name: credibility
# type: scalar
3


# name: adjustment
# type: scalar
2


# name: familiar
# type: scalar
2


# name: illegally
# type: scalar
2


# name: hypodermic
# type: scalar
3


# name: graceful
# type: scalar
1


# name: disinform
# type: scalar
3


# name: accuracy
# type: scalar
1


# name: fired
# type: scalar
1


# name: dissolution
# type: scalar
3


# name: capability
# type: scalar
3


# name: completely
# type: scalar
2


# name: credibly
# type: scalar
1


# name: establish
# type: scalar
2


# name: conscious
# type: scalar
1


# name: array
# type: scalar
2


# name: distribution
# type: scalar
3


# name: application
# type: scalar
3


# name: human
# type: scalar
1


# name: historical
# type: scalar
2


# name: centenary
# type: scalar
1


# name: formed
# type: scalar
1


# name: claimed
# type: scalar
1


# name: forest
# type: scalar
1


# name: accustomed
# type: scalar
2


# name: comfort
# type: scalar
1


# name: activity
# type: scalar
2


# name: historic
# type: scalar
2


# name: disagreement
# type: scalar
3


# name: fabrication
# type: scalar
3


# name: discretion
# type: scalar
2


# name: classified
# type: scalar
1


# name: cautiously
# type: scalar
1


# name: armed
# type: scalar
1


# name: correctness
# type: scalar
2


# name: honestly
# type: scalar
1


# name: hypothesis
# type: scalar
2


# name: exciting
# type: scalar
2


# name: distinct
# type: scalar
2


# name: existent
# type: scalar
2


# name: ceding
# type: scalar
1


# name: abilities
# type: scalar
2


# name: decent
# type: scalar
1


# name: disconnecting
# type: scalar
3


# name: dependent
# type: scalar
2


# name: bilateral
# type: scalar
2


# name: discreet
# type: scalar
2


# name: apply
# type: scalar
2


# name: humanely
# type: scalar
2


# name: bicentennial
# type: scalar
3


# name: focal
# type: scalar
1


# name: honesty
# type: scalar
1


# name: balanced
# type: scalar
1


# name: illiteracy
# type: scalar
2


# name: disclaim
# type: scalar
2


# name: assisted
# type: scalar
2


# name: countertenor
# type: scalar
1


# name: convenient
# type: scalar
2


# name: function
# type: scalar
1


# name: correct
# type: scalar
2


# name: constant
# type: scalar
1


# name: formal
# type: scalar
1


# name: even
# type: scalar
1


# name: inhuman
# type: scalar
2


# name: bilingual
# type: scalar
2


# name: disillusion
# type: scalar
3


# name: consequential
# type: scalar
3


# name: grouped
# type: scalar
1


# name: attraction
# type: scalar
2


# name: anxious
# type: scalar
1


# name: engagement
# type: scalar
2


# name: illegal
# type: scalar
2


# name: biographical
# type: scalar
3


# name: famous
# type: scalar
1


# name: establishment
# type: scalar
2


# name: discomfort
# type: scalar
2


# name: disclaimed
# type: scalar
2


# name: illusion
# type: scalar
2


# name: cautious
# type: scalar
1


# name: expensively
# type: scalar
2


# name: adjusted
# type: scalar
2


# name: behaviour
# type: scalar
2


# name: essential
# type: scalar
2


# name: flexibility
# type: scalar
3


# name: factor
# type: scalar
1


# name: continental
# type: scalar
3


# name: competently
# type: scalar
1


# name: entanglement
# type: scalar
2


# name: admission
# type: scalar
2


# name: assessment
# type: scalar
2


# name: continuity
# type: scalar
3


# name: carry
# type: scalar
1


# name: diction
# type: scalar
1


# name: hearten
# type: scalar
1


# name: burden
# type: scalar
1


# name: colour
# type: scalar
1


# name: discreetly
# type: scalar
2


# name: content
# type: scalar
1


# name: formality
# type: scalar
2


# name: eager
# type: scalar
1


# name: coherently
# type: scalar
2


# name: predictor
# type: scalar
2


# name: fondly
# type: scalar
1


# name: citizenship
# type: scalar
1


# name: monstrous
# type: scalar
1


# name: fervent
# type: scalar
1


# name: execution
# type: scalar
3


# name: shipment
# type: scalar
1


# name: friendly
# type: scalar
1


# name: previous
# type: scalar
1


# name: humour
# type: scalar
1


# name: occupation
# type: scalar
3


# name: biologic
# type: scalar
3


# name: patiently
# type: scalar
1


# name: pretty
# type: scalar
1


# name: dietary
# type: scalar
1


# name: devil
# type: scalar
1


# name: sainthood
# type: scalar
1


# name: category
# type: scalar
1


# name: priestly
# type: scalar
1


# name: blackness
# type: scalar
1


# name: crucial
# type: scalar
1


# name: exporter
# type: scalar
2


# name: scornful
# type: scalar
1


# name: dryness
# type: scalar
1


# name: comforting
# type: scalar
1


# name: shyness
# type: scalar
1


# name: business
# type: scalar
1


# name: fondness
# type: scalar
1


# name: equalizer
# type: scalar
1


# name: dampness
# type: scalar
1


# name: magic
# type: scalar
1


# name: readily
# type: scalar
1


# name: publicity
# type: scalar
2


# name: sealer
# type: scalar
1


# name: drinker
# type: scalar
1


# name: bloodless
# type: scalar
1


# name: rightness
# type: scalar
1


# name: mournful
# type: scalar
1


# name: diversion
# type: scalar
2


# name: peacefulness
# type: scalar
1


# name: conceptual
# type: scalar
2


# name: emptiness
# type: scalar
1


# name: rigidly
# type: scalar
1


# name: innovator
# type: scalar
1


# name: politically
# type: scalar
2


# name: shameful
# type: scalar
1


# name: nervous
# type: scalar
1


# name: leasehold
# type: scalar
1


# name: remorseless
# type: scalar
2


# name: disappointment
# type: scalar
3


# name: assessor
# type: scalar
2


# name: heartless
# type: scalar
1


# name: authentic
# type: scalar
2


# name: homeless
# type: scalar
1


# name: digest
# type: scalar
2


# name: saver
# type: scalar
1


# name: analytical
# type: scalar
3


# name: deaden
# type: scalar
1


# name: coldness
# type: scalar
1


# name: newness
# type: scalar
1


# name: nasal
# type: scalar
1


# name: romantic
# type: scalar
2


# name: girlish
# type: scalar
1


# name: cracker
# type: scalar
1


# name: deafen
# type: scalar
1


# name: fitness
# type: scalar
1


# name: classically
# type: scalar
1


# name: desert
# type: scalar
1


# name: instant
# type: scalar
1


# name: goodness
# type: scalar
1


# name: murderous
# type: scalar
1


# name: lover
# type: scalar
1


# name: elder
# type: scalar
1


# name: region
# type: scalar
1


# name: electricity
# type: scalar
3


# name: plunger
# type: scalar
1


# name: nightly
# type: scalar
1


# name: facility
# type: scalar
2


# name: signor
# type: scalar
1


# name: helpful
# type: scalar
1


# name: exponentially
# type: scalar
3


# name: driver
# type: scalar
1


# name: playfulness
# type: scalar
1


# name: cheerful
# type: scalar
1


# name: shiftless
# type: scalar
1


# name: pusher
# type: scalar
1


# name: firmness
# type: scalar
1


# name: fearful
# type: scalar
1


# name: identify
# type: scalar
2


# name: firstly
# type: scalar
1


# name: frighten
# type: scalar
1


# name: allegorical
# type: scalar
3


# name: actuary
# type: scalar
1


# name: breathlessly
# type: scalar
1


# name: lecturer
# type: scalar
1


# name: fertilizer
# type: scalar
1


# name: retain
# type: scalar
2


# name: punctual
# type: scalar
1


# name: hairless
# type: scalar
1


# name: shameless
# type: scalar
1


# name: seasick
# type: scalar
1


# name: searcher
# type: scalar
1


# name: performer
# type: scalar
2


# name: eagerly
# type: scalar
1


# name: settler
# type: scalar
1


# name: dealer
# type: scalar
1


# name: restlessness
# type: scalar
1


# name: modernity
# type: scalar
2


# name: fearless
# type: scalar
1


# name: overstatement
# type: scalar
1


# name: express
# type: scalar
2


# name: segment
# type: scalar
1


# name: ownership
# type: scalar
1


# name: narrowness
# type: scalar
1


# name: analytic
# type: scalar
3


# name: cynical
# type: scalar
1


# name: secular
# type: scalar
1


# name: adapter
# type: scalar
2


# name: faithfulness
# type: scalar
1


# name: harshness
# type: scalar
1


# name: adult
# type: scalar
2


# name: maiden
# type: scalar
1


# name: mischievous
# type: scalar
1


# name: humorously
# type: scalar
1


# name: mother
# type: scalar
1


# name: patient
# type: scalar
1


# name: gracefully
# type: scalar
1


# name: community
# type: scalar
2


# name: savagely
# type: scalar
1


# name: famously
# type: scalar
1


# name: companion
# type: scalar
2


# name: funny
# type: scalar
1


# name: cuteness
# type: scalar
1


# name: leafless
# type: scalar
1


# name: creativeness
# type: scalar
2


# name: murder
# type: scalar
1


# name: jailer
# type: scalar
1


# name: constantly
# type: scalar
1


# name: flightless
# type: scalar
1


# name: companionship
# type: scalar
2


# name: item
# type: scalar
1


# name: morbidly
# type: scalar
1


# name: powerless
# type: scalar
1


# name: silently
# type: scalar
1


# name: luckily
# type: scalar
1


# name: painless
# type: scalar
1


# name: religiously
# type: scalar
2


# name: relationship
# type: scalar
2


# name: fanatic
# type: scalar
2


# name: pitiless
# type: scalar
1


# name: eagerness
# type: scalar
1


# name: normal
# type: scalar
1


# name: restless
# type: scalar
1


# name: knighthood
# type: scalar
1


# name: encouragement
# type: scalar
2


# name: lucky
# type: scalar
1


# name: sexless
# type: scalar
1


# name: expiration
# type: scalar
3


# name: liquid
# type: scalar
1


# name: mechanically
# type: scalar
2


# name: proportionately
# type: scalar
2


# name: sickly
# type: scalar
1


# name: justification
# type: scalar
4


# name: shopper
# type: scalar
1


# name: respectfully
# type: scalar
2


# name: comfortably
# type: scalar
1


# name: largeness
# type: scalar
1


# name: sharpen
# type: scalar
1


# name: rocker
# type: scalar
1


# name: documentary
# type: scalar
3


# name: effortless
# type: scalar
1


# name: friendliness
# type: scalar
1


# name: ready
# type: scalar
1


# name: queasy
# type: scalar
1


# name: dumper
# type: scalar
1


# name: dreadfully
# type: scalar
1


# name: safely
# type: scalar
1


# name: curler
# type: scalar
1


# name: shooter
# type: scalar
1


# name: artificial
# type: scalar
3


# name: convivial
# type: scalar
2


# name: sinful
# type: scalar
1


# name: homely
# type: scalar
1


# name: inventor
# type: scalar
2


# name: nervousness
# type: scalar
1


# name: liver
# type: scalar
1


# name: professorship
# type: scalar
2


# name: fever
# type: scalar
1


# name: capricious
# type: scalar
2


# name: fatherhood
# type: scalar
1


# name: phosphorus
# type: scalar
1


# name: keenly
# type: scalar
1


# name: especial
# type: scalar
2


# name: cynic
# type: scalar
1


# name: realistic
# type: scalar
3


# name: secretly
# type: scalar
1


# name: measurement
# type: scalar
1


# name: complaining
# type: scalar
2


# name: master
# type: scalar
1


# name: basement
# type: scalar
1


# name: fully
# type: scalar
1


# name: righteousness
# type: scalar
1


# name: passively
# type: scalar
1


# name: equal
# type: scalar
1


# name: classical
# type: scalar
1


# name: remainder
# type: scalar
2


# name: dependency
# type: scalar
2


# name: morally
# type: scalar
1


# name: project
# type: scalar
1


# name: possessiveness
# type: scalar
2


# name: idyll
# type: scalar
1


# name: raver
# type: scalar
1


# name: capital
# type: scalar
1


# name: italic
# type: scalar
2


# name: graceless
# type: scalar
1


# name: kingly
# type: scalar
1


# name: partner
# type: scalar
1


# name: fiercely
# type: scalar
1


# name: dialectic
# type: scalar
3


# name: lady
# type: scalar
1


# name: reasonably
# type: scalar
1


# name: pointer
# type: scalar
1


# name: lengthen
# type: scalar
1


# name: mover
# type: scalar
1


# name: jovial
# type: scalar
1


# name: furious
# type: scalar
1


# name: kindly
# type: scalar
1


# name: decorator
# type: scalar
1


# name: mythic
# type: scalar
1


# name: minimally
# type: scalar
1


# name: rhetoric
# type: scalar
1


# name: drover
# type: scalar
1


# name: kingship
# type: scalar
1


# name: person
# type: scalar
1


# name: scrupulously
# type: scalar
1


# name: lovely
# type: scalar
1


# name: entertaining
# type: scalar
3


# name: foreigner
# type: scalar
1


# name: rapidly
# type: scalar
1


# name: moment
# type: scalar
1


# name: antithetical
# type: scalar
3


# name: happiness
# type: scalar
1


# name: assess
# type: scalar
2


# name: hopelessly
# type: scalar
1


# name: capriciously
# type: scalar
2


# name: logical
# type: scalar
1


# name: roaster
# type: scalar
1


# name: diversionary
# type: scalar
2


# name: confidentially
# type: scalar
3


# name: fatal
# type: scalar
1


# name: niceness
# type: scalar
1


# name: peerless
# type: scalar
1


# name: hardness
# type: scalar
1


# name: scarcely
# type: scalar
1


# name: chairmanship
# type: scalar
1


# name: confused
# type: scalar
2


# name: manor
# type: scalar
1


# name: defect
# type: scalar
1


# name: bulletproof
# type: scalar
1


# name: commuter
# type: scalar
2


# name: fairly
# type: scalar
1


# name: effortlessly
# type: scalar
1


# name: public
# type: scalar
1


# name: reason
# type: scalar
1


# name: merely
# type: scalar
1


# name: frightful
# type: scalar
1


# name: cheapness
# type: scalar
1


# name: garden
# type: scalar
1


# name: instrument
# type: scalar
1


# name: rarely
# type: scalar
1


# name: needlessly
# type: scalar
1


# name: forgiveness
# type: scalar
2


# name: compliment
# type: scalar
1


# name: falsely
# type: scalar
1


# name: resent
# type: scalar
2


# name: parent
# type: scalar
1


# name: receiver
# type: scalar
2


# name: legendary
# type: scalar
1


# name: humanly
# type: scalar
1


# name: counsel
# type: scalar
1


# name: earnestly
# type: scalar
1


# name: caution
# type: scalar
1


# name: fatuous
# type: scalar
1


# name: fatality
# type: scalar
2


# name: barely
# type: scalar
1


# name: meaning
# type: scalar
1


# name: enjoyably
# type: scalar
2


# name: melodic
# type: scalar
2


# name: brutal
# type: scalar
1


# name: minimal
# type: scalar
1


# name: schematic
# type: scalar
2


# name: merciless
# type: scalar
1


# name: charmer
# type: scalar
1


# name: namely
# type: scalar
1


# name: hospitalization
# type: scalar
5


# name: silencer
# type: scalar
1


# name: forgetful
# type: scalar
2


# name: programmer
# type: scalar
1


# name: mercifully
# type: scalar
1


# name: senseless
# type: scalar
1


# name: digit
# type: scalar
1


# name: hospital
# type: scalar
1


# name: parental
# type: scalar
2


# name: sentiment
# type: scalar
1


# name: hurtful
# type: scalar
1


# name: precautionary
# type: scalar
2


# name: shortness
# type: scalar
1


# name: adverbial
# type: scalar
2


# name: hopelessness
# type: scalar
1


# name: powerfully
# type: scalar
1


# name: marksman
# type: scalar
1


# name: actor
# type: scalar
1


# name: political
# type: scalar
2


# name: normality
# type: scalar
2


# name: fitful
# type: scalar
1


# name: mainly
# type: scalar
1


# name: flawless
# type: scalar
1


# name: champion
# type: scalar
1


# name: graven
# type: scalar
1


# name: earthly
# type: scalar
1


# name: proportional
# type: scalar
2


# name: dearly
# type: scalar
1


# name: gracious
# type: scalar
1


# name: murderer
# type: scalar
1


# name: fruitless
# type: scalar
1


# name: lowly
# type: scalar
1


# name: placement
# type: scalar
1


# name: prevention
# type: scalar
2


# name: compress
# type: scalar
1


# name: easy
# type: scalar
1


# name: penal
# type: scalar
1


# name: priesthood
# type: scalar
1


# name: doubtful
# type: scalar
1


# name: regular
# type: scalar
1


# name: calmly
# type: scalar
1


# name: keyless
# type: scalar
1


# name: hunter
# type: scalar
1


# name: shuffler
# type: scalar
1


# name: densely
# type: scalar
1


# name: contain
# type: scalar
2


# name: contempt
# type: scalar
2


# name: freely
# type: scalar
1


# name: paper
# type: scalar
1


# name: melody
# type: scalar
1


# name: reality
# type: scalar
2


# name: prophet
# type: scalar
1


# name: pitiful
# type: scalar
1


# name: plainly
# type: scalar
1


# name: securely
# type: scalar
2


# name: purposely
# type: scalar
1


# name: commit
# type: scalar
2


# name: momentary
# type: scalar
1


# name: mildly
# type: scalar
1


# name: oarsman
# type: scalar
1


# name: certain
# type: scalar
1


# name: joyful
# type: scalar
1


# name: especially
# type: scalar
2


# name: hellish
# type: scalar
1


# name: punish
# type: scalar
1


# name: prudent
# type: scalar
1


# name: legless
# type: scalar
1


# name: calmness
# type: scalar
1


# name: artificially
# type: scalar
3


# name: demonstrator
# type: scalar
1


# name: flawlessly
# type: scalar
1


# name: hydraulic
# type: scalar
2


# name: instantly
# type: scalar
1


# name: confidential
# type: scalar
3


# name: commonly
# type: scalar
1


# name: modern
# type: scalar
1


# name: labour
# type: scalar
1


# name: homesick
# type: scalar
1


# name: sadly
# type: scalar
1


# name: looker
# type: scalar
1


# name: defender
# type: scalar
2


# name: scanner
# type: scalar
1


# name: cancel
# type: scalar
1


# name: creatively
# type: scalar
2


# name: deliver
# type: scalar
2


# name: impotent
# type: scalar
1


# name: imaginary
# type: scalar
2


# name: partially
# type: scalar
1


# name: glider
# type: scalar
1


# name: nasty
# type: scalar
1


# name: carefully
# type: scalar
1


# name: ferociously
# type: scalar
2


# name: hopefully
# type: scalar
1


# name: scrupulous
# type: scalar
1


# name: dreadful
# type: scalar
1


# name: complexity
# type: scalar
2


# name: optimist
# type: scalar
1


# name: opener
# type: scalar
1


# name: carbon
# type: scalar
1


# name: selfish
# type: scalar
1


# name: accidentally
# type: scalar
3


# name: fractional
# type: scalar
1


# name: server
# type: scalar
1


# name: option
# type: scalar
1


# name: mythical
# type: scalar
1


# name: decimal
# type: scalar
1


# name: peaceful
# type: scalar
1


# name: modestly
# type: scalar
1


# name: forcefully
# type: scalar
1


# name: masterfully
# type: scalar
1


# name: comic
# type: scalar
1


# name: projector
# type: scalar
2


# name: peculiar
# type: scalar
2


# name: delicious
# type: scalar
2


# name: resolutely
# type: scalar
1


# name: reformation
# type: scalar
3


# name: secret
# type: scalar
1


# name: explosively
# type: scalar
2


# name: prosperous
# type: scalar
1


# name: deathly
# type: scalar
1


# name: entertainer
# type: scalar
3


# name: entertainment
# type: scalar
3


# name: newly
# type: scalar
1


# name: corruptly
# type: scalar
2


# name: commodity
# type: scalar
2


# name: girlishly
# type: scalar
1


# name: sender
# type: scalar
1


# name: crispness
# type: scalar
1


# name: motionless
# type: scalar
1


# name: deadly
# type: scalar
1


# name: phenomenal
# type: scalar
2


# name: majesty
# type: scalar
1


# name: prison
# type: scalar
1


# name: medicinal
# type: scalar
2


# name: sickness
# type: scalar
1


# name: fisher
# type: scalar
1


# name: relation
# type: scalar
2


# name: circular
# type: scalar
1


# name: ideally
# type: scalar
2


# name: practical
# type: scalar
1


# name: healthful
# type: scalar
1


# name: readership
# type: scalar
1


# name: enviously
# type: scalar
1


# name: decorous
# type: scalar
1


# name: carelessness
# type: scalar
1


# name: deafness
# type: scalar
1


# name: heaven
# type: scalar
1


# name: reddish
# type: scalar
1


# name: amplification
# type: scalar
4


# name: cosy
# type: scalar
1


# name: formula
# type: scalar
1


# name: digitally
# type: scalar
1


# name: fortunately
# type: scalar
1


# name: follow
# type: scalar
1


# name: coastal
# type: scalar
1


# name: powerful
# type: scalar
1


# name: orbital
# type: scalar
1


# name: empty
# type: scalar
1


# name: oxygen
# type: scalar
1


# name: exponential
# type: scalar
3


# name: humidity
# type: scalar
2


# name: monumental
# type: scalar
3


# name: moderator
# type: scalar
1


# name: morbid
# type: scalar
1


# name: ranker
# type: scalar
1


# name: righteously
# type: scalar
1


# name: plentiful
# type: scalar
1


# name: sexually
# type: scalar
1


# name: perilous
# type: scalar
1


# name: roughness
# type: scalar
1


# name: ascendancy
# type: scalar
2


# name: ocean
# type: scalar
1


# name: hugely
# type: scalar
1


# name: ambassador
# type: scalar
2


# name: graphically
# type: scalar
1


# name: rapid
# type: scalar
1


# name: payment
# type: scalar
1


# name: recent
# type: scalar
1


# name: lordship
# type: scalar
1


# name: optimistic
# type: scalar
3


# name: earnestness
# type: scalar
1


# name: historically
# type: scalar
2


# name: pity
# type: scalar
1


# name: proportionally
# type: scalar
2


# name: friendship
# type: scalar
1


# name: colon
# type: scalar
1


# name: lucid
# type: scalar
1


# name: merciful
# type: scalar
1


# name: faceless
# type: scalar
1


# name: goodly
# type: scalar
1


# name: hopeful
# type: scalar
1


# name: signal
# type: scalar
1


# name: shocker
# type: scalar
1


# name: poorly
# type: scalar
1


# name: sharply
# type: scalar
1


# name: naked
# type: scalar
1


# name: nimbly
# type: scalar
1


# name: researcher
# type: scalar
1


# name: liberally
# type: scalar
1


# name: religious
# type: scalar
2


# name: commercial
# type: scalar
2


# name: fancy
# type: scalar
1


# name: graciously
# type: scalar
1


# name: neighbour
# type: scalar
1


# name: enormously
# type: scalar
2


# name: serenity
# type: scalar
2


# name: partiality
# type: scalar
3


# name: sensitively
# type: scalar
1


# name: sicken
# type: scalar
1


# name: outspoken
# type: scalar
2


# name: iron
# type: scalar
1


# name: neighbourly
# type: scalar
1


# name: review
# type: scalar
2


# name: horseman
# type: scalar
1


# name: attachment
# type: scalar
2


# name: morbidity
# type: scalar
2


# name: fruitful
# type: scalar
1


# name: pension
# type: scalar
1


# name: fighter
# type: scalar
1


# name: knightly
# type: scalar
1


# name: passion
# type: scalar
1


# name: authorization
# type: scalar
4


# name: punishment
# type: scalar
1


# name: conservancy
# type: scalar
2


# name: explicitly
# type: scalar
2


# name: playfully
# type: scalar
1


# name: dresser
# type: scalar
1


# name: setter
# type: scalar
1


# name: keeper
# type: scalar
1


# name: graphic
# type: scalar
1


# name: account
# type: scalar
2


# name: severely
# type: scalar
2


# name: craftsman
# type: scalar
1


# name: radical
# type: scalar
1


# name: distinctiveness
# type: scalar
2


# name: hopefulness
# type: scalar
1


# name: babyhood
# type: scalar
1


# name: diligently
# type: scalar
1


# name: repeater
# type: scalar
2


# name: greatness
# type: scalar
1


# name: childless
# type: scalar
1


# name: exception
# type: scalar
2


# name: saintly
# type: scalar
1


# name: legally
# type: scalar
1


# name: edit
# type: scalar
1


# name: customer
# type: scalar
1


# name: lifeless
# type: scalar
1


# name: reversion
# type: scalar
2


# name: eventual
# type: scalar
2


# name: freshness
# type: scalar
1


# name: marker
# type: scalar
1


# name: chairman
# type: scalar
1


# name: sewer
# type: scalar
1


# name: really
# type: scalar
1


# name: compact
# type: scalar
1


# name: optic
# type: scalar
1


# name: insulator
# type: scalar
1


# name: occupancy
# type: scalar
1


# name: hostility
# type: scalar
2


# name: righteous
# type: scalar
1


# name: rigidity
# type: scalar
2


# name: blacken
# type: scalar
1


# name: particular
# type: scalar
2


# name: philosophic
# type: scalar
3


# name: economically
# type: scalar
3


# name: marksmanship
# type: scalar
1


# name: manly
# type: scalar
1


# name: organ
# type: scalar
1


# name: manhood
# type: scalar
1


# name: helper
# type: scalar
1


# name: preacher
# type: scalar
1


# name: baby
# type: scalar
1


# name: fastness
# type: scalar
1


# name: crystal
# type: scalar
1


# name: scholar
# type: scalar
1


# name: metric
# type: scalar
1


# name: liquidity
# type: scalar
2


# name: radically
# type: scalar
1


# name: honest
# type: scalar
1


# name: foolishly
# type: scalar
1


# name: accountancy
# type: scalar
2


# name: accidental
# type: scalar
3


# name: conversation
# type: scalar
3


# name: redness
# type: scalar
1


# name: madly
# type: scalar
1


# name: conform
# type: scalar
2


# name: graphical
# type: scalar
1


# name: additional
# type: scalar
2


# name: local
# type: scalar
1


# name: fellowship
# type: scalar
1


# name: predict
# type: scalar
2


# name: rustic
# type: scalar
1


# name: printer
# type: scalar
1


# name: humid
# type: scalar
1


# name: patriot
# type: scalar
1


# name: frankness
# type: scalar
1


# name: finely
# type: scalar
1


# name: harmlessly
# type: scalar
1


# name: nicely
# type: scalar
1


# name: mindful
# type: scalar
1


# name: dreamer
# type: scalar
1


# name: ideal
# type: scalar
2


# name: retriever
# type: scalar
2


# name: canon
# type: scalar
1


# name: identical
# type: scalar
2


# name: freezer
# type: scalar
1


# name: intensify
# type: scalar
2


# name: rationally
# type: scalar
1


# name: salesmanship
# type: scalar
1


# name: defend
# type: scalar
2


# name: abject